c --- [ banner ] -------------------------------------------------------------
c 
c CaDiCaL Radically Simplified CDCL SAT Solver
c Copyright (c) 2016-2021 A. Biere, M. Fleury, N. Froleyks
c 
c Version 1.5.2 a5f15211db36c3956764e18194dd5bd63bf3b5e6
c g++ (GCC) 9.3.0 -Wall -Wextra -O3 -DNDEBUG
c Fri Oct 21 01:27:37 EDT 2022 Linux gra-login3 3.10.0-1160.66.1.el7.x86_64 x86_64
c 
c --- [ limit ] --------------------------------------------------------------
c 
c setting conflict limit to 200000 conflicts (due to '200000')
c 
c --- [ parsing input ] ------------------------------------------------------
c 
c reading DIMACS file from '33.cubes5175.adj'
c opening file to read '33.cubes5175.adj'
c found 'p cnf 6160 1595482' header
c parsed 1595482 clauses in 19.80 seconds process time
c closing file '33.cubes5175.adj'
c after reading 1457566824 bytes 1390.0 MB
c 
c --- [ options ] ------------------------------------------------------------
c 
c all options are set to their default value
c 
c --- [ solving ] ------------------------------------------------------------
c 
c time measured in process time since initialization
c 
c  seconds    reductions  redundant   irredundant
c          MB     restarts       trail       variables
c            level   conflicts       glue         remaining
c 
c * 19.80 1379  0 0   0    0    0  0% 0 1595422 2349 38%
c { 20.74 1421  0 0   0    0    0  0% 0 1595422 2349 38%
c i 22.85 1466 995 0   0   54   51 36% 7 1595422 2316 38%
c i 24.58 1490 601 0   5  109   88 30% 9 1595422 2313 38%
c i 26.20 1501 452 0  16  151  121 28% 15 1595422 2299 37%
c i 26.66 1504 431 0  18  160  129 28% 19 1595422 2284 37%
c i 26.88 1506 418 0  18  166  134 28% 19 1595422 2283 37%
c i 27.08 1506 410 0  20  170  137 28% 19 1595422 2281 37%
c i 27.21 1506 397 0  21  176  142 28% 20 1595422 2280 37%
c i 27.23 1506 393 0  22  178  143 27% 20 1595422 2279 37%
c i 27.72 1507 350 0  28  202  162 27% 21 1595422 2278 37%
c i 28.77 1510 278 0  43  273  228 28% 27 1595422 2276 37%
c - 33.02 1467 257 1  51  300  245 27% 27 243668 2276 37%
c i 33.14 1467 257 1  51  301  245 27% 27 243668 2275 37%
c i 33.42 1399 249 1  55  315  257 27% 29 243668 2274 37%
c i 34.13 1399 219 1  74  389  323 27% 31 243668 2273 37%
c i 34.59 1399 202 1  81  435  357 27% 30 243668 2271 37%
c i 34.79 1399 199 1  84  452  370 27% 31 243668 2270 37%
c i 35.00 1399 194 1  85  464  381 27% 30 243668 2269 37%
c i 35.12 1399 191 1  85  474  389 27% 30 243668 2267 37%
c 
c  seconds     reductions  redundant   irredundant
c          MB      restarts       trail       variables
c             level   conflicts       glue         remaining
c 
c i 35.20 1399 190 1  85  481  392 27% 30 243668 2266 37%
c i 35.69 1400 177 1  87  540  442 27% 30 243668 2265 37%
c i 35.96 1400 171 1  87  574  469 27% 30 243668 2264 37%
c i 36.03 1400 170 1  87  577  471 27% 30 243668 2263 37%
c i 36.12 1400 167 1  87  589  482 27% 29 243668 2262 37%
c i 36.33 1400 156 1  87  647  534 28% 29 243668 2261 37%
c i 36.44 1400 151 1  87  678  561 28% 29 243668 2260 37%
c i 36.44 1400 151 1  87  680  562 28% 29 243668 2259 37%
c i 36.71 1400 144 1  90  737  607 28% 29 243668 2258 37%
c i 36.85 1400 143 1  90  748  615 28% 29 243668 2257 37%
c i 37.02 1400 142 1  90  760  626 28% 29 243668 2256 37%
c i 37.05 1400 141 1  91  770  634 28% 29 243668 2255 37%
c i 37.06 1400 140 1  92  777  640 28% 29 243668 2254 37%
c i 37.24 1400 135 1  92  818  676 28% 29 243668 2253 37%
c i 37.27 1400 133 1  92  831  687 28% 29 243668 2252 37%
c i 37.34 1400 131 1  92  849  700 28% 29 243668 2251 37%
c i 37.89 1400 119 1 100 1000  832 28% 29 243668 2250 37%
c } 37.89 1400 119 1 100 1000  832 28% 29 243668 2250 37%
c [ 37.89 1400  0 1 100 1000  832  0% 0 243668 2250 37%
c O 37.90 1400 52 1 100 1002  834 22% 32 243668 2250 37%
c 
c  seconds    reductions  redundant   irredundant
c          MB     restarts       trail       variables
c            level   conflicts       glue         remaining
c 
c i 38.36 1401 21 1 100 1102  926 32% 16 243668 2249 37%
c - 38.88 1502 21 2 100 1133  847 33% 17 243592 2249 37%
c i 38.92 1502 21 2 100 1139  852 33% 17 243592 2248 36%
c i 39.09 1502 22 2 100 1205  911 32% 18 243592 2247 36%
c i 39.15 1502 23 2 100 1240  938 32% 19 243592 2246 36%
c i 39.40 1502 23 2 100 1589 1207 32% 20 243592 2245 36%
c i 39.79 1502 22 2 101 2258 1721 32% 19 243592 2244 36%
c - 40.15 1501 21 3 101 2381 1358 32% 19 243577 2244 36%
c i 40.84 1501 23 3 101 2917 1736 53% 20 243577 2243 36%
c ] 40.87 1501 23 3 101 3000 1779 53% 20 243577 2243 36%
c { 40.87 1501 119 3 101 3000 1779 78% 29 243577 2243 36%
c F 40.93 1501 119 3 102 3003 1782 78% 29 243577 2243 36%
c i 41.00 1501 119 3 103 3004 1782 78% 29 243577 2242 36%
c i 41.44 1501 116 3 113 3072 1843 76% 29 243577 2241 36%
c i 41.48 1501 116 3 114 3079 1848 76% 29 243577 2239 36%
c i 42.26 1501 109 3 143 3281 2016 71% 29 243577 2238 36%
c - 44.78 1500 90 4 207 4044 1852 63% 31 243560 2238 36%
c i 45.92 1500 87 4 231 4263 2047 61% 31 243560 2237 36%
c i 46.54 1500 81 4 231 4526 2261 59% 29 243560 2236 36%
c i 46.86 1500 75 4 232 4806 2469 59% 28 243560 2235 36%
c 
c  seconds    reductions  redundant   irredundant
c          MB     restarts       trail       variables
c            level   conflicts       glue         remaining
c 
c 2 47.55 1500 72 4 236 5001 3600 58% 28 243532 2230 36%
c p 52.79 1500 72 4 236 5001 6388 58% 28 243532 2204 36%
c d 53.15 1500 72 4 236 5001 6362 58% 28 243456 2202 36%
c # 54.31 1500 61 4 236 6004 7175 56% 27 243456 2202 36%
c - 54.77 1401 60 5 236 6124 2627 56% 26 243456 2202 36%
c } 55.34 1401 55 5 236 7003 3294 54% 25 243456 2202 36%
c [ 55.34 1401 23 5 236 7003 3294 53% 20 243456 2202 36%
c - 56.23 1401 28 6 237 8619 3091 49% 23 243456 2202 36%
c I 57.01 1401 30 6 238 10008 4037 48% 25 243456 2202 36%
c - 60.27 1401 30 7 240 11531 3407 47% 25 243456 2202 36%
c - 64.34 1401 32 8 241 14858 3828 47% 27 243456 2202 36%
c p 66.12 1401 32 8 241 15001 7867 47% 27 243456 2202 36%
c ] 66.25 1401 32 8 241 15004 7868 47% 27 243456 2202 36%
c { 66.25 1401 55 8 241 15004 7868 54% 25 243456 2202 36%
c B 66.30 1401 55 8 241 15009 7870 54% 25 243456 2202 36%
c - 70.32 1401 44 9 299 18604 4698 52% 24 243456 2202 36%
c s 70.62 1401 43 9 299 18816 4802 52% 24 241759 2202 36%
c v 73.12 1401 43 9 299 18816 4802 52% 24 241753 2202 36%
c t 73.20 1401 43 9 299 18816 4797 52% 24 241746 2202 36%
c e 74.07 1403 43 9 299 18816 4572 52% 24 239693 999 16%
c 
c  seconds    reductions   redundant   irredundant
c          MB     restarts        trail       variables
c            level    conflicts       glue        remaining
c 
c s 74.16 1403 43 9 299 18816 4572 52% 24 238946 999 16%
c W 77.83 1403 39 9 316 21011 6104 69% 23 238946 999 16%
c - 81.76 1403 40 10 458 22764 5516 68% 24 238946 999 16%
c - 86.37 1403 36 11 593 27312 6298 68% 22 238946 999 16%
c F 87.21 1403 35 11 629 28012 6754 69% 22 238946 999 16%
c p 94.95 1403 36 11 841 30001 10890 68% 23 238946 998 16%
c } 95.49 1403 35 11 841 31004 11385 68% 22 238946 998 16%
c [ 95.49 1403 32 11 841 31004 11385 104% 27 238946 998 16%
c - 96.32 1403 31 12 841 32274 6343 100% 26 238943 998 16%
c B 97.90 1403 28 12 844 36016 8459 91% 24 238943 998 16%
c - 98.84 1403 33 13 844 37651 6827 89% 27 238943 998 16%
c - 101.86 1403 38 14 848 43440 7816 84% 31 238943 998 16%
c W 103.38 1403 38 14 848 45017 9022 83% 31 238943 998 16%
c - 105.48 1403 37 15 849 49642 8243 81% 30 238943 998 16%
c p 106.99 1403 37 15 849 50001 11223 81% 30 238943 998 16%
c s 107.59 1403 36 15 849 50426 11480 81% 30 238213 998 16%
c v 111.01 1403 36 15 849 50426 11480 81% 30 238188 998 16%
c t 111.16 1403 36 15 849 50426 11466 81% 30 238188 998 16%
c e 112.03 1404 36 15 849 50426 11454 81% 30 238179 993 16%
c s 112.18 1404 36 15 849 50426 11454 81% 30 237637 993 16%
c 
c  seconds     reductions     redundant   irredundant
c           MB      restarts         trail       variables
c             level     conflicts        glue        remaining
c 
c O 115.96 1405 37 15 850 55022 14733 79% 31 237637 993 16%
c - 116.51 1405 36 16 851 56257 9168 79% 30 237637 993 16%
c ] 118.76 1405 35 16 856 63006 14091 78% 29 237637 993 16%
c { 118.76 1405 35 16 856 63006 14091 68% 22 237637 993 16%
c - 118.96 1405 34 17 864 63276 9420 69% 22 237637 993 16%
c B 120.62 1405 32 17 875 66023 11222 68% 21 237637 993 16%
c - 123.65 1405 31 18 987 70706 9458 68% 20 237637 993 16%
c } 128.84 1405 31 18 1319 73904 11730 68% 21 237637 993 16%
c 1 128.84 1405 31 18 1319 73904 11730 68% 21 237637 993 16%
c 
c --- [ writing output ] -----------------------------------------------------
c 
c writing simplified CNF to DIMACS file 'simp/33.cubes5175.adj.simp1'
c * 128.84 1405 31 18 1319 73904 11730 68% 21 237637 993 16%
c opening file to write 'simp/33.cubes5175.adj.simp1'
c writing 'p cnf 6160 237637' header
c closing file 'simp/33.cubes5175.adj.simp1'
c after writing 111497589 bytes 106.3 MB
c wrote 237637 clauses in 0.79 seconds process time
c 
c --- [ writing extension ] --------------------------------------------------
c 
c writing extension stack to 'simp/33.cubes5175.adj.ext1'
c opening file to write 'simp/33.cubes5175.adj.ext1'
c closing file 'simp/33.cubes5175.adj.ext1'
c after writing 78408 bytes 0.1 MB
c wrote 3557 witnesses in 0.00 seconds process time
c 
c --- [ result ] -------------------------------------------------------------
c 
s SATISFIABLE
c 
c --- [ run-time profiling ] -------------------------------------------------
c 
c process time taken by individual solving procedures
c (percentage relative to process time for solving)
c 
c        86.95   79.75% search
c        57.18   52.44% unstable
c        27.96   25.64% stable
c        22.08   20.25% simplify
c        19.80   18.16% parse
c        11.12   10.20% probe
c         6.09    5.58% vivify
c         3.36    3.08% elim
c         0.93    0.86% lucky
c         0.88    0.80% walk
c         0.48    0.44% subsume
c         0.14    0.13% ternary
c   =================================
c       109.04   84.11% solve
c 
c last line shows process time for solving
c (percentage relative to total process time)
c 
c --- [ statistics ] ---------------------------------------------------------
c 
c chronological:             12673        17.15 %  of conflicts
c conflicts:                 73904       677.79    per second
c decisions:                158823      1456.61    per second
c eliminated:                 1208        19.61 %  of all variables
c fixed:                       808        13.12 %  of all variables
c learned:                   72424        98.00 %  per conflict
c learned_lits:           14655307       100.00 %  learned literals
c minimized:                     0         0.00 %  learned literals
c shrunken:                8784883        59.94 %  learned literals
c minishrunken:            1316562         8.98 %  learned literals
c propagations:            6357290         0.06 M  per second
c reduced:                   40545        54.86 %  per conflict
c rephased:                     11      6718.55    interval
c restarts:                   1319        56.03    interval
c stabilizing:                   3        56.83 %  of conflicts
c substituted:                   7         0.11 %  of all variables
c subsumed:                  23646         0.69 %  of all clauses
c strengthened:               7552         0.22 %  of all clauses
c ternary:                    3291         0.68 %  of resolved
c vivified:                     58         0.00 %  of all clauses
c walked:                        2     36952.00    interval
c weakened:                   2749         2.99    average size
c 
c seconds are measured in process time for solving
c 
c --- [ resources ] ----------------------------------------------------------
c 
c total process time since initialization:       129.63    seconds
c total real time since initialization:          130.45    seconds
c maximum resident set size of process:         1602.32    MB
c 
c --- [ shutting down ] ------------------------------------------------------
c 
c exit 10
WARNING! DIMACS header mismatch: wrong number of variables.
============================[ Problem Statistics ]=============================
|                                                                             |
|  Number of variables:          6111                                         |
|  Number of clauses:          237637                                         |
|  Parse time:                   1.48 s                                       |
|  Simplification time:          0.05 s                                       |
|                                                                             |
============================[ Search Statistics ]====================================================
| Conflicts |          ORIGINAL         |          LEARNT          | Num Sols |      SUBGRAPHS      |
|           |    Vars  Clauses Literals |    Limit  Clauses Lit/Cl |          | Canonical Noncanon. |
=====================================================================================================
|       113 |    6018   237650 24066109 |     2000      113     94 |        0 |        17        13 |
|       331 |    6018   237718 24067321 |     2000      331     80 |        0 |        31        81 |
|       569 |    6018   237731 24067709 |     2000      569     92 |        0 |        40        94 |
|       929 |    6018   237754 24068241 |     2000      929     97 |        0 |        55       117 |
|      1548 |    6018   237867 24070543 |     2000     1548    101 |        0 |        77       230 |
|      2352 |    6018   237912 24071456 |     3600     1352     71 |        0 |        97       275 |
|      3535 |    6018   237956 24072836 |     3600     2535     87 |        0 |       105       319 |
|      5267 |    6018   237980 24073504 |     5001     2468     73 |        0 |       113       343 |
|      7953 |    6018   238104 24075758 |     6302     2655     56 |        0 |       138       467 |
|     11907 |    6018   238214 24078269 |     7552     3459     50 |        0 |       228       577 |
|     18132 |    6018   238673 24087837 |     8780     5912     63 |        0 |       405      1036 |
|     26880 |    6018   238772 24089678 |    11198     5278     43 |        0 |       464      1135 |
|     40128 |    6018   239046 24096099 |    13603     6731     41 |        0 |       629      1409 |
|     60449 |    6018   239906 24110667 |    16004    12853     63 |        0 |       968      2269 |
|     89892 |    6018   240157 24115388 |    19605    16497     73 |        0 |      1176      2520 |
|    133988 |    6018   240464 24121933 |    24408    17796     64 |        0 |      1405      2827 |
|    200046 |    6018   240838 24129640 |    30420    16866     50 |        0 |      1766      3201 |
|    300333 |    6018   242599 24164678 |    36409    35142     79 |        0 |      2385      4962 |
|    450689 |    6018   245166 24215806 |    46013    23102     40 |        0 |      3378      7529 |
|    676633 |    6018   249427 24294555 |    55615    48248     75 |        0 |      4733     11790 |
|   1012733 |    6018   253002 24378651 |    68823    45556     63 |        0 |      6318     15365 |
|   1518024 |    6018   259505 24519576 |    84420    56844     59 |        0 |      8405     21868 |
|   2283971 |    6018   277270 24922223 |   103619    75590     64 |        0 |     13689     39633 |
|   3417997 |    6018   289022 25197775 |   126420   122817     67 |        0 |     17069     51385 |
|   5106997 |    6018   294611 25331272 |   155214   129411     59 |        0 |     18951     56974 |
|   7646487 |    6008   296730 25355231 |   190011   174898     71 |       10 |     24296     71338 |
|  11476594 |    5965   322765 25785189 |   233134   206928     64 |       11 |     40169    113769 |
=====================================================================================================
Number of solutions   : 33
Canonical subgraphs   : 41092          (15 /sec)
          order  3    : 1              (125000 /sec)
          order  4    : 1              (333333 /sec)
          order  5    : 1              (125000 /sec)
          order  6    : 1              (32258 /sec)
          order  7    : 1              (5128 /sec)
          order  8    : 2              (1056 /sec)
          order  9    : 6              (297 /sec)
          order 10    : 23             (90 /sec)
          order 11    : 104            (27 /sec)
          order 12    : 1058           (14 /sec)
          order 13    : 1360           (5 /sec)
          order 14    : 9189           (15 /sec)
          order 15    : 19129          (19 /sec)
          order 16    : 4989           (17 /sec)
          order 17    : 2889           (14 /sec)
          order 18    : 991            (11 /sec)
          order 19    : 434            (11 /sec)
          order 20    : 428            (11 /sec)
          order 21    : 452            (11 /sec)
          order 22    : 33             (1 /sec)
Noncanonical subgraphs: 115824         (241 /sec)
          order  3    : 0              (-nan /sec)
          order  4    : 0              (-nan /sec)
          order  5    : 0              (-nan /sec)
          order  6    : 0              (-nan /sec)
          order  7    : 0              (-nan /sec)
          order  8    : 0              (-nan /sec)
          order  9    : 0              (-nan /sec)
          order 10    : 0              (-nan /sec)
          order 11    : 0              (-nan /sec)
          order 12    : 0              (-nan /sec)
          order 13    : 6450           (2838 /sec)
          order 14    : 39940          (992 /sec)
          order 15    : 24886          (889 /sec)
          order 16    : 41287          (133 /sec)
          order 17    : 1987           (66 /sec)
          order 18    : 748            (45 /sec)
          order 19    : 0              (-nan /sec)
          order 20    : 0              (-nan /sec)
          order 21    : 0              (-nan /sec)
Canonicity checking   : 2719.57 s
Noncanonicity checking: 480.236 s
Total canonicity time : 3199.8 s
database reductions   : 199
restarts              : 18044
conflicts             : 12271349       (1271 /sec)
decisions             : 15058831       (0.00 % random) (1560 /sec)
propagations          : 648850672      (67208 /sec)
conflict literals     : 1347597469     (56.75 % deleted)
actual reward         : 0.233929
Memory used           : 418.00 MB
CPU time              : 9654.44 s

UNSATISFIABLE
